NAME : cgl_51.12668.tour
COMMENT : Length = 12668
COMMENT : Found by LKH-3 [Keld Helsgaun] Fri Nov  8 19:20:30 2024
TYPE : TOUR
DIMENSION : 51
TOUR_SECTION
33
34
35
36
39
38
37
40
42
41
43
44
46
47
45
48
49
50
51
1
2
3
4
5
6
8
7
9
10
11
12
13
14
15
16
17
18
19
20
21
24
23
22
26
25
27
28
30
29
32
31
-1
EOF
